p cnf 400 1
400 0
w 1 0.383787
w 2 1 1
w 2 -1 0
w 3 2 0
w 3 -2 1
w 4 3 1
w 4 -3 0
w 5 4 0
w 5 -4 1
w 6 5 0.216699
w 6 -5 0.42989
w 7 6 1
w 7 -6 0
w 8 7 1
w 8 -7 0
w 9 8 0
w 9 -8 1
w 10 9 0
w 10 -9 1
w 11 10 0.353463
w 11 -10 0.209744
w 12 11 0
w 12 -11 1
w 13 12 0.512398
w 13 -12 0.145662
w 14 13 1
w 14 -13 0
w 15 14 1
w 15 -14 0
w 16 15 1
w 16 -15 0
w 17 16 0.101346
w 17 -16 0.150239
w 18 17 1
w 18 -17 0
w 19 18 1
w 19 -18 0
w 20 19 0
w 20 -19 1
w 21 1 0.657957
w 21 -1 0.331706
w 22 21 2 0.940999
w 22 21 -2 0.912235
w 22 -21 2 0.14792
w 22 -21 -2 0.483583
w 23 22 3 0.501382
w 23 22 -3 0.693327
w 23 -22 3 0.971447
w 23 -22 -3 0.709403
w 24 23 4 0
w 24 23 -4 0
w 24 -23 4 0
w 24 -23 -4 1
w 25 24 5 1
w 25 24 -5 0
w 25 -24 5 0
w 25 -24 -5 1
w 26 25 6 0
w 26 25 -6 1
w 26 -25 6 0
w 26 -25 -6 1
w 27 26 7 0
w 27 26 -7 1
w 27 -26 7 0
w 27 -26 -7 1
w 28 27 8 0
w 28 27 -8 1
w 28 -27 8 0
w 28 -27 -8 0
w 29 28 9 0.915153
w 29 28 -9 0.906508
w 29 -28 9 0.884374
w 29 -28 -9 0.624556
w 30 29 10 0
w 30 29 -10 1
w 30 -29 10 1
w 30 -29 -10 1
w 31 30 11 1
w 31 30 -11 0
w 31 -30 11 1
w 31 -30 -11 1
w 32 31 12 1
w 32 31 -12 0
w 32 -31 12 1
w 32 -31 -12 1
w 33 32 13 0.299145
w 33 32 -13 0.332334
w 33 -32 13 0.937043
w 33 -32 -13 0.564995
w 34 33 14 0
w 34 33 -14 0
w 34 -33 14 0
w 34 -33 -14 1
w 35 34 15 0.181621
w 35 34 -15 0.808906
w 35 -34 15 0.518474
w 35 -34 -15 0.601548
w 36 35 16 1
w 36 35 -16 0
w 36 -35 16 0
w 36 -35 -16 1
w 37 36 17 0.16851
w 37 36 -17 0.644959
w 37 -36 17 0.0172517
w 37 -36 -17 0.121857
w 38 37 18 0.528606
w 38 37 -18 0.534951
w 38 -37 18 0.708927
w 38 -37 -18 0.530267
w 39 38 19 0
w 39 38 -19 1
w 39 -38 19 1
w 39 -38 -19 0
w 40 39 20 0
w 40 39 -20 1
w 40 -39 20 1
w 40 -39 -20 0
w 41 21 0
w 41 -21 1
w 42 41 22 0.165729
w 42 41 -22 0.785564
w 42 -41 22 0.531235
w 42 -41 -22 0.342854
w 43 42 23 0.17599
w 43 42 -23 0.563569
w 43 -42 23 0.556452
w 43 -42 -23 0.980884
w 44 43 24 1
w 44 43 -24 0
w 44 -43 24 0
w 44 -43 -24 1
w 45 44 25 1
w 45 44 -25 0
w 45 -44 25 0
w 45 -44 -25 1
w 46 45 26 1
w 46 45 -26 0
w 46 -45 26 1
w 46 -45 -26 0
w 47 46 27 0
w 47 46 -27 0
w 47 -46 27 1
w 47 -46 -27 0
w 48 47 28 0
w 48 47 -28 1
w 48 -47 28 0
w 48 -47 -28 1
w 49 48 29 1
w 49 48 -29 1
w 49 -48 29 1
w 49 -48 -29 0
w 50 49 30 1
w 50 49 -30 0
w 50 -49 30 1
w 50 -49 -30 0
w 51 50 31 0
w 51 50 -31 0
w 51 -50 31 0
w 51 -50 -31 1
w 52 51 32 0
w 52 51 -32 1
w 52 -51 32 0
w 52 -51 -32 0
w 53 52 33 0
w 53 52 -33 0
w 53 -52 33 1
w 53 -52 -33 0
w 54 53 34 0
w 54 53 -34 0
w 54 -53 34 0
w 54 -53 -34 1
w 55 54 35 1
w 55 54 -35 1
w 55 -54 35 0
w 55 -54 -35 0
w 56 55 36 1
w 56 55 -36 0
w 56 -55 36 1
w 56 -55 -36 1
w 57 56 37 0
w 57 56 -37 0
w 57 -56 37 1
w 57 -56 -37 1
w 58 57 38 0
w 58 57 -38 1
w 58 -57 38 1
w 58 -57 -38 1
w 59 58 39 0.286645
w 59 58 -39 0.447343
w 59 -58 39 0.961864
w 59 -58 -39 0.328271
w 60 59 40 1
w 60 59 -40 1
w 60 -59 40 0
w 60 -59 -40 0
w 61 41 0
w 61 -41 1
w 62 61 42 0.600496
w 62 61 -42 0.288538
w 62 -61 42 0.818415
w 62 -61 -42 0.134028
w 63 62 43 1
w 63 62 -43 0
w 63 -62 43 1
w 63 -62 -43 1
w 64 63 44 0
w 64 63 -44 0
w 64 -63 44 1
w 64 -63 -44 1
w 65 64 45 0.519341
w 65 64 -45 0.854939
w 65 -64 45 0.0690071
w 65 -64 -45 0.472898
w 66 65 46 0
w 66 65 -46 0
w 66 -65 46 1
w 66 -65 -46 0
w 67 66 47 0.546405
w 67 66 -47 0.698429
w 67 -66 47 0.863629
w 67 -66 -47 0.861545
w 68 67 48 1
w 68 67 -48 1
w 68 -67 48 0
w 68 -67 -48 0
w 69 68 49 1
w 69 68 -49 1
w 69 -68 49 0
w 69 -68 -49 0
w 70 69 50 0
w 70 69 -50 0
w 70 -69 50 1
w 70 -69 -50 1
w 71 70 51 0
w 71 70 -51 1
w 71 -70 51 1
w 71 -70 -51 0
w 72 71 52 0
w 72 71 -52 0
w 72 -71 52 0
w 72 -71 -52 1
w 73 72 53 1
w 73 72 -53 0
w 73 -72 53 1
w 73 -72 -53 0
w 74 73 54 1
w 74 73 -54 1
w 74 -73 54 1
w 74 -73 -54 0
w 75 74 55 1
w 75 74 -55 1
w 75 -74 55 1
w 75 -74 -55 0
w 76 75 56 1
w 76 75 -56 1
w 76 -75 56 1
w 76 -75 -56 0
w 77 76 57 1
w 77 76 -57 1
w 77 -76 57 1
w 77 -76 -57 0
w 78 77 58 0.41674
w 78 77 -58 0.408256
w 78 -77 58 0.591934
w 78 -77 -58 0.316187
w 79 78 59 0
w 79 78 -59 1
w 79 -78 59 0
w 79 -78 -59 1
w 80 79 60 1
w 80 79 -60 0
w 80 -79 60 0
w 80 -79 -60 1
w 81 61 0
w 81 -61 1
w 82 81 62 0.118543
w 82 81 -62 0.0479277
w 82 -81 62 0.430928
w 82 -81 -62 0.712952
w 83 82 63 0.697005
w 83 82 -63 0.72124
w 83 -82 63 0.933242
w 83 -82 -63 0.396149
w 84 83 64 0.699824
w 84 83 -64 0.383298
w 84 -83 64 0.552428
w 84 -83 -64 0.661701
w 85 84 65 0.960684
w 85 84 -65 0.253635
w 85 -84 65 0.116225
w 85 -84 -65 0.408812
w 86 85 66 1
w 86 85 -66 0
w 86 -85 66 1
w 86 -85 -66 0
w 87 86 67 0
w 87 86 -67 1
w 87 -86 67 1
w 87 -86 -67 0
w 88 87 68 0.301505
w 88 87 -68 0.0277682
w 88 -87 68 0.0388677
w 88 -87 -68 0.732433
w 89 88 69 1
w 89 88 -69 1
w 89 -88 69 0
w 89 -88 -69 1
w 90 89 70 0
w 90 89 -70 0
w 90 -89 70 0
w 90 -89 -70 1
w 91 90 71 0.476326
w 91 90 -71 0.125149
w 91 -90 71 0.361947
w 91 -90 -71 0.891225
w 92 91 72 1
w 92 91 -72 0
w 92 -91 72 0
w 92 -91 -72 1
w 93 92 73 1
w 93 92 -73 0
w 93 -92 73 1
w 93 -92 -73 0
w 94 93 74 0.522233
w 94 93 -74 0.767481
w 94 -93 74 0.633733
w 94 -93 -74 0.262953
w 95 94 75 0
w 95 94 -75 1
w 95 -94 75 1
w 95 -94 -75 0
w 96 95 76 1
w 96 95 -76 0
w 96 -95 76 0
w 96 -95 -76 1
w 97 96 77 1
w 97 96 -77 0
w 97 -96 77 1
w 97 -96 -77 1
w 98 97 78 1
w 98 97 -78 0
w 98 -97 78 1
w 98 -97 -78 1
w 99 98 79 0
w 99 98 -79 0
w 99 -98 79 1
w 99 -98 -79 1
w 100 99 80 1
w 100 99 -80 0
w 100 -99 80 0
w 100 -99 -80 1
w 101 81 0
w 101 -81 1
w 102 101 82 0.197952
w 102 101 -82 0.67198
w 102 -101 82 0.723789
w 102 -101 -82 0.362888
w 103 102 83 0.821433
w 103 102 -83 0.520274
w 103 -102 83 0.129793
w 103 -102 -83 0.928001
w 104 103 84 0
w 104 103 -84 0
w 104 -103 84 0
w 104 -103 -84 1
w 105 104 85 1
w 105 104 -85 0
w 105 -104 85 0
w 105 -104 -85 0
w 106 105 86 1
w 106 105 -86 1
w 106 -105 86 0
w 106 -105 -86 0
w 107 106 87 1
w 107 106 -87 0
w 107 -106 87 0
w 107 -106 -87 1
w 108 107 88 0
w 108 107 -88 1
w 108 -107 88 1
w 108 -107 -88 0
w 109 108 89 0
w 109 108 -89 1
w 109 -108 89 1
w 109 -108 -89 1
w 110 109 90 1
w 110 109 -90 0
w 110 -109 90 0
w 110 -109 -90 0
w 111 110 91 1
w 111 110 -91 1
w 111 -110 91 0
w 111 -110 -91 1
w 112 111 92 0
w 112 111 -92 0
w 112 -111 92 1
w 112 -111 -92 1
w 113 112 93 1
w 113 112 -93 0
w 113 -112 93 1
w 113 -112 -93 1
w 114 113 94 0
w 114 113 -94 0
w 114 -113 94 0
w 114 -113 -94 1
w 115 114 95 0
w 115 114 -95 0
w 115 -114 95 1
w 115 -114 -95 1
w 116 115 96 0.785299
w 116 115 -96 0.727852
w 116 -115 96 0.747388
w 116 -115 -96 0.427163
w 117 116 97 1
w 117 116 -97 1
w 117 -116 97 0
w 117 -116 -97 1
w 118 117 98 0.362574
w 118 117 -98 0.953316
w 118 -117 98 0.698212
w 118 -117 -98 0.108959
w 119 118 99 0
w 119 118 -99 0
w 119 -118 99 0
w 119 -118 -99 1
w 120 119 100 0
w 120 119 -100 1
w 120 -119 100 1
w 120 -119 -100 0
w 121 101 1
w 121 -101 0
w 122 121 102 1
w 122 121 -102 1
w 122 -121 102 0
w 122 -121 -102 0
w 123 122 103 1
w 123 122 -103 0
w 123 -122 103 1
w 123 -122 -103 0
w 124 123 104 0.487092
w 124 123 -104 0.939851
w 124 -123 104 0.675733
w 124 -123 -104 0.433781
w 125 124 105 1
w 125 124 -105 0
w 125 -124 105 0
w 125 -124 -105 0
w 126 125 106 0
w 126 125 -106 0
w 126 -125 106 1
w 126 -125 -106 1
w 127 126 107 1
w 127 126 -107 1
w 127 -126 107 1
w 127 -126 -107 0
w 128 127 108 1
w 128 127 -108 1
w 128 -127 108 1
w 128 -127 -108 0
w 129 128 109 0
w 129 128 -109 1
w 129 -128 109 0
w 129 -128 -109 1
w 130 129 110 0.772073
w 130 129 -110 0.452346
w 130 -129 110 0.51051
w 130 -129 -110 0.205854
w 131 130 111 0.13956
w 131 130 -111 0.337847
w 131 -130 111 0.166156
w 131 -130 -111 0.145108
w 132 131 112 1
w 132 131 -112 0
w 132 -131 112 1
w 132 -131 -112 0
w 133 132 113 0.306321
w 133 132 -113 0.385824
w 133 -132 113 0.564403
w 133 -132 -113 0.427119
w 134 133 114 0
w 134 133 -114 1
w 134 -133 114 1
w 134 -133 -114 1
w 135 134 115 0.587066
w 135 134 -115 0.531273
w 135 -134 115 0.281668
w 135 -134 -115 0.0995611
w 136 135 116 1
w 136 135 -116 0
w 136 -135 116 1
w 136 -135 -116 1
w 137 136 117 1
w 137 136 -117 0
w 137 -136 117 0
w 137 -136 -117 1
w 138 137 118 1
w 138 137 -118 1
w 138 -137 118 1
w 138 -137 -118 0
w 139 138 119 1
w 139 138 -119 1
w 139 -138 119 0
w 139 -138 -119 1
w 140 139 120 0.724663
w 140 139 -120 0.893336
w 140 -139 120 0.439678
w 140 -139 -120 0.979333
w 141 121 1
w 141 -121 0
w 142 141 122 0
w 142 141 -122 1
w 142 -141 122 1
w 142 -141 -122 1
w 143 142 123 0.217868
w 143 142 -123 0.351797
w 143 -142 123 0.0313714
w 143 -142 -123 0.524547
w 144 143 124 0
w 144 143 -124 1
w 144 -143 124 0
w 144 -143 -124 0
w 145 144 125 1
w 145 144 -125 1
w 145 -144 125 1
w 145 -144 -125 0
w 146 145 126 0
w 146 145 -126 0
w 146 -145 126 1
w 146 -145 -126 0
w 147 146 127 0.406558
w 147 146 -127 0.529095
w 147 -146 127 0.827683
w 147 -146 -127 0.984473
w 148 147 128 0.394082
w 148 147 -128 0.0936606
w 148 -147 128 0.683494
w 148 -147 -128 0.0600418
w 149 148 129 1
w 149 148 -129 0
w 149 -148 129 1
w 149 -148 -129 0
w 150 149 130 0.288611
w 150 149 -130 0.115455
w 150 -149 130 0.799838
w 150 -149 -130 0.817754
w 151 150 131 0.0565897
w 151 150 -131 0.035983
w 151 -150 131 0.757849
w 151 -150 -131 0.115349
w 152 151 132 0.276724
w 152 151 -132 0.361939
w 152 -151 132 0.048426
w 152 -151 -132 0.789946
w 153 152 133 0
w 153 152 -133 1
w 153 -152 133 0
w 153 -152 -133 0
w 154 153 134 0
w 154 153 -134 0
w 154 -153 134 1
w 154 -153 -134 1
w 155 154 135 0
w 155 154 -135 0
w 155 -154 135 1
w 155 -154 -135 1
w 156 155 136 1
w 156 155 -136 1
w 156 -155 136 1
w 156 -155 -136 0
w 157 156 137 0.49297
w 157 156 -137 0.115374
w 157 -156 137 0.906578
w 157 -156 -137 0.250819
w 158 157 138 0
w 158 157 -138 1
w 158 -157 138 0
w 158 -157 -138 0
w 159 158 139 0
w 159 158 -139 0
w 159 -158 139 1
w 159 -158 -139 0
w 160 159 140 0
w 160 159 -140 1
w 160 -159 140 0
w 160 -159 -140 1
w 161 141 1
w 161 -141 0
w 162 161 142 0.68446
w 162 161 -142 0.25459
w 162 -161 142 0.577374
w 162 -161 -142 0.255775
w 163 162 143 1
w 163 162 -143 1
w 163 -162 143 0
w 163 -162 -143 0
w 164 163 144 0
w 164 163 -144 0
w 164 -163 144 1
w 164 -163 -144 1
w 165 164 145 0
w 165 164 -145 1
w 165 -164 145 0
w 165 -164 -145 1
w 166 165 146 1
w 166 165 -146 0
w 166 -165 146 0
w 166 -165 -146 1
w 167 166 147 1
w 167 166 -147 0
w 167 -166 147 1
w 167 -166 -147 1
w 168 167 148 0.523083
w 168 167 -148 0.834192
w 168 -167 148 0.0681517
w 168 -167 -148 0.100457
w 169 168 149 0
w 169 168 -149 1
w 169 -168 149 0
w 169 -168 -149 0
w 170 169 150 1
w 170 169 -150 0
w 170 -169 150 0
w 170 -169 -150 0
w 171 170 151 0.877577
w 171 170 -151 0.36824
w 171 -170 151 0.271207
w 171 -170 -151 0.996026
w 172 171 152 0.826305
w 172 171 -152 0.890994
w 172 -171 152 0.944966
w 172 -171 -152 0.405872
w 173 172 153 1
w 173 172 -153 1
w 173 -172 153 1
w 173 -172 -153 0
w 174 173 154 1
w 174 173 -154 1
w 174 -173 154 1
w 174 -173 -154 0
w 175 174 155 0
w 175 174 -155 1
w 175 -174 155 0
w 175 -174 -155 0
w 176 175 156 0.530253
w 176 175 -156 0.761522
w 176 -175 156 0.619802
w 176 -175 -156 0.684616
w 177 176 157 1
w 177 176 -157 0
w 177 -176 157 1
w 177 -176 -157 0
w 178 177 158 0.619159
w 178 177 -158 0.384399
w 178 -177 158 0.897429
w 178 -177 -158 0.0250313
w 179 178 159 0
w 179 178 -159 0
w 179 -178 159 1
w 179 -178 -159 0
w 180 179 160 0
w 180 179 -160 1
w 180 -179 160 0
w 180 -179 -160 1
w 181 161 0.0558558
w 181 -161 0.0396237
w 182 181 162 0
w 182 181 -162 1
w 182 -181 162 0
w 182 -181 -162 0
w 183 182 163 0
w 183 182 -163 1
w 183 -182 163 0
w 183 -182 -163 0
w 184 183 164 0
w 184 183 -164 1
w 184 -183 164 1
w 184 -183 -164 0
w 185 184 165 1
w 185 184 -165 1
w 185 -184 165 0
w 185 -184 -165 1
w 186 185 166 0
w 186 185 -166 1
w 186 -185 166 0
w 186 -185 -166 0
w 187 186 167 1
w 187 186 -167 1
w 187 -186 167 0
w 187 -186 -167 1
w 188 187 168 1
w 188 187 -168 0
w 188 -187 168 0
w 188 -187 -168 0
w 189 188 169 0.611651
w 189 188 -169 0.945506
w 189 -188 169 0.31407
w 189 -188 -169 0.647114
w 190 189 170 1
w 190 189 -170 0
w 190 -189 170 0
w 190 -189 -170 1
w 191 190 171 0.153699
w 191 190 -171 0.706453
w 191 -190 171 0.641893
w 191 -190 -171 0.439195
w 192 191 172 1
w 192 191 -172 1
w 192 -191 172 0
w 192 -191 -172 0
w 193 192 173 1
w 193 192 -173 0
w 193 -192 173 0
w 193 -192 -173 0
w 194 193 174 0.800138
w 194 193 -174 0.993086
w 194 -193 174 0.533058
w 194 -193 -174 0.169181
w 195 194 175 0
w 195 194 -175 1
w 195 -194 175 0
w 195 -194 -175 0
w 196 195 176 0
w 196 195 -176 1
w 196 -195 176 1
w 196 -195 -176 1
w 197 196 177 1
w 197 196 -177 1
w 197 -196 177 0
w 197 -196 -177 0
w 198 197 178 1
w 198 197 -178 1
w 198 -197 178 1
w 198 -197 -178 0
w 199 198 179 0
w 199 198 -179 0
w 199 -198 179 1
w 199 -198 -179 0
w 200 199 180 0.592275
w 200 199 -180 0.365163
w 200 -199 180 0.157029
w 200 -199 -180 0.768252
w 201 181 0.937861
w 201 -181 0.889735
w 202 201 182 1
w 202 201 -182 1
w 202 -201 182 0
w 202 -201 -182 0
w 203 202 183 0
w 203 202 -183 1
w 203 -202 183 0
w 203 -202 -183 1
w 204 203 184 0
w 204 203 -184 0
w 204 -203 184 1
w 204 -203 -184 1
w 205 204 185 1
w 205 204 -185 1
w 205 -204 185 1
w 205 -204 -185 0
w 206 205 186 1
w 206 205 -186 0
w 206 -205 186 0
w 206 -205 -186 1
w 207 206 187 0
w 207 206 -187 1
w 207 -206 187 0
w 207 -206 -187 0
w 208 207 188 1
w 208 207 -188 1
w 208 -207 188 0
w 208 -207 -188 0
w 209 208 189 0
w 209 208 -189 1
w 209 -208 189 1
w 209 -208 -189 1
w 210 209 190 0.727346
w 210 209 -190 0.960088
w 210 -209 190 0.661182
w 210 -209 -190 0.753772
w 211 210 191 1
w 211 210 -191 1
w 211 -210 191 1
w 211 -210 -191 0
w 212 211 192 0
w 212 211 -192 1
w 212 -211 192 1
w 212 -211 -192 0
w 213 212 193 0
w 213 212 -193 0
w 213 -212 193 1
w 213 -212 -193 0
w 214 213 194 0.641124
w 214 213 -194 0.7288
w 214 -213 194 0.0568674
w 214 -213 -194 0.995626
w 215 214 195 1
w 215 214 -195 0
w 215 -214 195 1
w 215 -214 -195 0
w 216 215 196 0.882897
w 216 215 -196 0.63419
w 216 -215 196 0.723041
w 216 -215 -196 0.544079
w 217 216 197 0
w 217 216 -197 1
w 217 -216 197 0
w 217 -216 -197 1
w 218 217 198 1
w 218 217 -198 1
w 218 -217 198 0
w 218 -217 -198 0
w 219 218 199 0
w 219 218 -199 0
w 219 -218 199 0
w 219 -218 -199 1
w 220 219 200 1
w 220 219 -200 0
w 220 -219 200 0
w 220 -219 -200 0
w 221 201 0
w 221 -201 1
w 222 221 202 1
w 222 221 -202 0
w 222 -221 202 0
w 222 -221 -202 0
w 223 222 203 0
w 223 222 -203 1
w 223 -222 203 1
w 223 -222 -203 0
w 224 223 204 0.112686
w 224 223 -204 0.779993
w 224 -223 204 0.902685
w 224 -223 -204 0.288173
w 225 224 205 0
w 225 224 -205 0
w 225 -224 205 1
w 225 -224 -205 0
w 226 225 206 1
w 226 225 -206 1
w 226 -225 206 0
w 226 -225 -206 0
w 227 226 207 0
w 227 226 -207 0
w 227 -226 207 0
w 227 -226 -207 1
w 228 227 208 0.299247
w 228 227 -208 0.362422
w 228 -227 208 0.452025
w 228 -227 -208 0.853277
w 229 228 209 1
w 229 228 -209 0
w 229 -228 209 1
w 229 -228 -209 0
w 230 229 210 1
w 230 229 -210 1
w 230 -229 210 1
w 230 -229 -210 0
w 231 230 211 0
w 231 230 -211 0
w 231 -230 211 1
w 231 -230 -211 0
w 232 231 212 0
w 232 231 -212 1
w 232 -231 212 0
w 232 -231 -212 1
w 233 232 213 0
w 233 232 -213 1
w 233 -232 213 0
w 233 -232 -213 0
w 234 233 214 0.156486
w 234 233 -214 0.848331
w 234 -233 214 0.148489
w 234 -233 -214 0.608511
w 235 234 215 1
w 235 234 -215 1
w 235 -234 215 0
w 235 -234 -215 0
w 236 235 216 1
w 236 235 -216 1
w 236 -235 216 1
w 236 -235 -216 0
w 237 236 217 0
w 237 236 -217 0
w 237 -236 217 0
w 237 -236 -217 1
w 238 237 218 1
w 238 237 -218 0
w 238 -237 218 0
w 238 -237 -218 1
w 239 238 219 1
w 239 238 -219 1
w 239 -238 219 0
w 239 -238 -219 1
w 240 239 220 0.476736
w 240 239 -220 0.929578
w 240 -239 220 0.72316
w 240 -239 -220 0.625225
w 241 221 0
w 241 -221 1
w 242 241 222 0
w 242 241 -222 1
w 242 -241 222 1
w 242 -241 -222 0
w 243 242 223 0
w 243 242 -223 1
w 243 -242 223 0
w 243 -242 -223 0
w 244 243 224 0
w 244 243 -224 0
w 244 -243 224 0
w 244 -243 -224 1
w 245 244 225 0
w 245 244 -225 1
w 245 -244 225 0
w 245 -244 -225 1
w 246 245 226 1
w 246 245 -226 0
w 246 -245 226 0
w 246 -245 -226 0
w 247 246 227 0
w 247 246 -227 0
w 247 -246 227 0
w 247 -246 -227 1
w 248 247 228 1
w 248 247 -228 1
w 248 -247 228 0
w 248 -247 -228 0
w 249 248 229 1
w 249 248 -229 0
w 249 -248 229 0
w 249 -248 -229 0
w 250 249 230 0.81976
w 250 249 -230 0.50878
w 250 -249 230 0.313677
w 250 -249 -230 0.587279
w 251 250 231 0
w 251 250 -231 0
w 251 -250 231 1
w 251 -250 -231 1
w 252 251 232 0.39069
w 252 251 -232 0.0402273
w 252 -251 232 0.160014
w 252 -251 -232 0.586226
w 253 252 233 1
w 253 252 -233 1
w 253 -252 233 1
w 253 -252 -233 0
w 254 253 234 0.994881
w 254 253 -234 0.694003
w 254 -253 234 0.35972
w 254 -253 -234 0.103346
w 255 254 235 0
w 255 254 -235 1
w 255 -254 235 0
w 255 -254 -235 0
w 256 255 236 0.546557
w 256 255 -236 0.035448
w 256 -255 236 0.0729855
w 256 -255 -236 0.133837
w 257 256 237 1
w 257 256 -237 1
w 257 -256 237 0
w 257 -256 -237 0
w 258 257 238 1
w 258 257 -238 0
w 258 -257 238 1
w 258 -257 -238 0
w 259 258 239 0.135233
w 259 258 -239 0.66229
w 259 -258 239 0.0202214
w 259 -258 -239 0.0338246
w 260 259 240 1
w 260 259 -240 0
w 260 -259 240 0
w 260 -259 -240 1
w 261 241 1
w 261 -241 0
w 262 261 242 0
w 262 261 -242 1
w 262 -261 242 1
w 262 -261 -242 1
w 263 262 243 0
w 263 262 -243 1
w 263 -262 243 1
w 263 -262 -243 1
w 264 263 244 0
w 264 263 -244 1
w 264 -263 244 0
w 264 -263 -244 1
w 265 264 245 1
w 265 264 -245 1
w 265 -264 245 0
w 265 -264 -245 1
w 266 265 246 0.265438
w 266 265 -246 0.161897
w 266 -265 246 0.286833
w 266 -265 -246 0.280541
w 267 266 247 0.157228
w 267 266 -247 0.39899
w 267 -266 247 0.996038
w 267 -266 -247 0.427331
w 268 267 248 0.0120882
w 268 267 -248 0.424231
w 268 -267 248 0.990299
w 268 -267 -248 0.787447
w 269 268 249 0.0847361
w 269 268 -249 0.635791
w 269 -268 249 0.644983
w 269 -268 -249 0.289642
w 270 269 250 0.0478887
w 270 269 -250 0.675
w 270 -269 250 0.508623
w 270 -269 -250 0.165754
w 271 270 251 0
w 271 270 -251 0
w 271 -270 251 1
w 271 -270 -251 0
w 272 271 252 0
w 272 271 -252 0
w 272 -271 252 0
w 272 -271 -252 1
w 273 272 253 1
w 273 272 -253 1
w 273 -272 253 0
w 273 -272 -253 1
w 274 273 254 1
w 274 273 -254 0
w 274 -273 254 1
w 274 -273 -254 1
w 275 274 255 0.429821
w 275 274 -255 0.346066
w 275 -274 255 0.550317
w 275 -274 -255 0.47771
w 276 275 256 0
w 276 275 -256 0
w 276 -275 256 1
w 276 -275 -256 0
w 277 276 257 0.397935
w 277 276 -257 0.0239409
w 277 -276 257 0.0887251
w 277 -276 -257 0.919462
w 278 277 258 1
w 278 277 -258 1
w 278 -277 258 0
w 278 -277 -258 0
w 279 278 259 1
w 279 278 -259 1
w 279 -278 259 0
w 279 -278 -259 1
w 280 279 260 1
w 280 279 -260 1
w 280 -279 260 1
w 280 -279 -260 0
w 281 261 0
w 281 -261 1
w 282 281 262 1
w 282 281 -262 1
w 282 -281 262 1
w 282 -281 -262 0
w 283 282 263 1
w 283 282 -263 1
w 283 -282 263 0
w 283 -282 -263 1
w 284 283 264 1
w 284 283 -264 0
w 284 -283 264 0
w 284 -283 -264 0
w 285 284 265 1
w 285 284 -265 0
w 285 -284 265 0
w 285 -284 -265 1
w 286 285 266 0
w 286 285 -266 1
w 286 -285 266 1
w 286 -285 -266 0
w 287 286 267 0.673352
w 287 286 -267 0.999359
w 287 -286 267 0.541606
w 287 -286 -267 0.778507
w 288 287 268 0
w 288 287 -268 0
w 288 -287 268 1
w 288 -287 -268 1
w 289 288 269 0
w 289 288 -269 0
w 289 -288 269 1
w 289 -288 -269 0
w 290 289 270 0
w 290 289 -270 1
w 290 -289 270 0
w 290 -289 -270 0
w 291 290 271 0.333753
w 291 290 -271 0.961982
w 291 -290 271 0.39647
w 291 -290 -271 0.876714
w 292 291 272 0.944047
w 292 291 -272 0.629577
w 292 -291 272 0.775277
w 292 -291 -272 0.568668
w 293 292 273 0.628566
w 293 292 -273 0.24202
w 293 -292 273 0.938117
w 293 -292 -273 0.170173
w 294 293 274 1
w 294 293 -274 0
w 294 -293 274 0
w 294 -293 -274 0
w 295 294 275 0
w 295 294 -275 0
w 295 -294 275 0
w 295 -294 -275 1
w 296 295 276 0.116685
w 296 295 -276 0.128795
w 296 -295 276 0.469597
w 296 -295 -276 0.783054
w 297 296 277 0.414143
w 297 296 -277 0.116807
w 297 -296 277 0.882687
w 297 -296 -277 0.810613
w 298 297 278 0.708152
w 298 297 -278 0.75466
w 298 -297 278 0.623097
w 298 -297 -278 0.483428
w 299 298 279 1
w 299 298 -279 0
w 299 -298 279 0
w 299 -298 -279 0
w 300 299 280 1
w 300 299 -280 1
w 300 -299 280 0
w 300 -299 -280 1
w 301 281 0.197593
w 301 -281 0.788397
w 302 301 282 1
w 302 301 -282 0
w 302 -301 282 1
w 302 -301 -282 1
w 303 302 283 0
w 303 302 -283 0
w 303 -302 283 1
w 303 -302 -283 0
w 304 303 284 1
w 304 303 -284 0
w 304 -303 284 1
w 304 -303 -284 1
w 305 304 285 0
w 305 304 -285 0
w 305 -304 285 1
w 305 -304 -285 1
w 306 305 286 0
w 306 305 -286 1
w 306 -305 286 1
w 306 -305 -286 1
w 307 306 287 1
w 307 306 -287 1
w 307 -306 287 0
w 307 -306 -287 1
w 308 307 288 0
w 308 307 -288 0
w 308 -307 288 0
w 308 -307 -288 1
w 309 308 289 0.97352
w 309 308 -289 0.74558
w 309 -308 289 0.529362
w 309 -308 -289 0.957637
w 310 309 290 0
w 310 309 -290 0
w 310 -309 290 1
w 310 -309 -290 1
w 311 310 291 0
w 311 310 -291 1
w 311 -310 291 1
w 311 -310 -291 1
w 312 311 292 0
w 312 311 -292 1
w 312 -311 292 1
w 312 -311 -292 1
w 313 312 293 0
w 313 312 -293 0
w 313 -312 293 0
w 313 -312 -293 1
w 314 313 294 1
w 314 313 -294 1
w 314 -313 294 0
w 314 -313 -294 1
w 315 314 295 0
w 315 314 -295 0
w 315 -314 295 1
w 315 -314 -295 0
w 316 315 296 1
w 316 315 -296 0
w 316 -315 296 1
w 316 -315 -296 0
w 317 316 297 1
w 317 316 -297 0
w 317 -316 297 0
w 317 -316 -297 0
w 318 317 298 1
w 318 317 -298 0
w 318 -317 298 1
w 318 -317 -298 0
w 319 318 299 0.457413
w 319 318 -299 0.560123
w 319 -318 299 0.301902
w 319 -318 -299 0.147269
w 320 319 300 0.446918
w 320 319 -300 0.140295
w 320 -319 300 0.552667
w 320 -319 -300 0.807933
w 321 301 1
w 321 -301 0
w 322 321 302 1
w 322 321 -302 0
w 322 -321 302 0
w 322 -321 -302 0
w 323 322 303 0
w 323 322 -303 0
w 323 -322 303 0
w 323 -322 -303 1
w 324 323 304 0
w 324 323 -304 1
w 324 -323 304 1
w 324 -323 -304 0
w 325 324 305 0
w 325 324 -305 0
w 325 -324 305 1
w 325 -324 -305 0
w 326 325 306 0.615751
w 326 325 -306 0.529082
w 326 -325 306 0.0273365
w 326 -325 -306 0.585574
w 327 326 307 0.167632
w 327 326 -307 0.138241
w 327 -326 307 0.783933
w 327 -326 -307 0.704498
w 328 327 308 1
w 328 327 -308 0
w 328 -327 308 0
w 328 -327 -308 0
w 329 328 309 0
w 329 328 -309 0
w 329 -328 309 0
w 329 -328 -309 1
w 330 329 310 0.082329
w 330 329 -310 0.0309893
w 330 -329 310 0.11051
w 330 -329 -310 0.603236
w 331 330 311 1
w 331 330 -311 1
w 331 -330 311 0
w 331 -330 -311 1
w 332 331 312 0.212434
w 332 331 -312 0.288601
w 332 -331 312 0.933294
w 332 -331 -312 0.798008
w 333 332 313 1
w 333 332 -313 1
w 333 -332 313 0
w 333 -332 -313 0
w 334 333 314 1
w 334 333 -314 0
w 334 -333 314 0
w 334 -333 -314 1
w 335 334 315 0
w 335 334 -315 0
w 335 -334 315 1
w 335 -334 -315 0
w 336 335 316 0
w 336 335 -316 0
w 336 -335 316 0
w 336 -335 -316 1
w 337 336 317 0
w 337 336 -317 1
w 337 -336 317 0
w 337 -336 -317 0
w 338 337 318 1
w 338 337 -318 1
w 338 -337 318 0
w 338 -337 -318 1
w 339 338 319 1
w 339 338 -319 1
w 339 -338 319 0
w 339 -338 -319 1
w 340 339 320 1
w 340 339 -320 0
w 340 -339 320 0
w 340 -339 -320 0
w 341 321 0
w 341 -321 1
w 342 341 322 0
w 342 341 -322 1
w 342 -341 322 1
w 342 -341 -322 1
w 343 342 323 0.208383
w 343 342 -323 0.375766
w 343 -342 323 0.725301
w 343 -342 -323 0.132721
w 344 343 324 0
w 344 343 -324 1
w 344 -343 324 1
w 344 -343 -324 1
w 345 344 325 0.177342
w 345 344 -325 0.586459
w 345 -344 325 0.0260918
w 345 -344 -325 0.802974
w 346 345 326 0
w 346 345 -326 0
w 346 -345 326 0
w 346 -345 -326 1
w 347 346 327 1
w 347 346 -327 1
w 347 -346 327 0
w 347 -346 -327 1
w 348 347 328 1
w 348 347 -328 0
w 348 -347 328 0
w 348 -347 -328 0
w 349 348 329 0.506867
w 349 348 -329 0.75258
w 349 -348 329 0.277229
w 349 -348 -329 0.232168
w 350 349 330 0.338451
w 350 349 -330 0.503563
w 350 -349 330 0.701878
w 350 -349 -330 0.991085
w 351 350 331 0
w 351 350 -331 1
w 351 -350 331 1
w 351 -350 -331 1
w 352 351 332 0.199188
w 352 351 -332 0.828687
w 352 -351 332 0.205432
w 352 -351 -332 0.0490516
w 353 352 333 0
w 353 352 -333 1
w 353 -352 333 1
w 353 -352 -333 0
w 354 353 334 0
w 354 353 -334 1
w 354 -353 334 0
w 354 -353 -334 1
w 355 354 335 0.500681
w 355 354 -335 0.314284
w 355 -354 335 0.50491
w 355 -354 -335 0.77791
w 356 355 336 0
w 356 355 -336 1
w 356 -355 336 1
w 356 -355 -336 0
w 357 356 337 1
w 357 356 -337 0
w 357 -356 337 0
w 357 -356 -337 1
w 358 357 338 0
w 358 357 -338 0
w 358 -357 338 1
w 358 -357 -338 0
w 359 358 339 0.268397
w 359 358 -339 0.740106
w 359 -358 339 0.840252
w 359 -358 -339 0.981388
w 360 359 340 0
w 360 359 -340 1
w 360 -359 340 1
w 360 -359 -340 0
w 361 341 0.18089
w 361 -341 0.354108
w 362 361 342 0
w 362 361 -342 1
w 362 -361 342 0
w 362 -361 -342 1
w 363 362 343 1
w 363 362 -343 1
w 363 -362 343 1
w 363 -362 -343 0
w 364 363 344 0.6317
w 364 363 -344 0.0629439
w 364 -363 344 0.851104
w 364 -363 -344 0.878975
w 365 364 345 0.779795
w 365 364 -345 0.331683
w 365 -364 345 0.917262
w 365 -364 -345 0.0481923
w 366 365 346 0
w 366 365 -346 1
w 366 -365 346 0
w 366 -365 -346 0
w 367 366 347 1
w 367 366 -347 0
w 367 -366 347 1
w 367 -366 -347 0
w 368 367 348 1
w 368 367 -348 1
w 368 -367 348 0
w 368 -367 -348 1
w 369 368 349 0
w 369 368 -349 1
w 369 -368 349 1
w 369 -368 -349 0
w 370 369 350 1
w 370 369 -350 0
w 370 -369 350 1
w 370 -369 -350 0
w 371 370 351 1
w 371 370 -351 0
w 371 -370 351 0
w 371 -370 -351 1
w 372 371 352 0.696957
w 372 371 -352 0.291346
w 372 -371 352 0.161843
w 372 -371 -352 0.70868
w 373 372 353 1
w 373 372 -353 1
w 373 -372 353 0
w 373 -372 -353 0
w 374 373 354 0.463591
w 374 373 -354 0.371744
w 374 -373 354 0.144363
w 374 -373 -354 0.321756
w 375 374 355 1
w 375 374 -355 0
w 375 -374 355 0
w 375 -374 -355 0
w 376 375 356 0.449465
w 376 375 -356 0.286679
w 376 -375 356 0.00618253
w 376 -375 -356 0.883243
w 377 376 357 0.0283637
w 377 376 -357 0.096816
w 377 -376 357 0.550674
w 377 -376 -357 0.967807
w 378 377 358 0
w 378 377 -358 1
w 378 -377 358 0
w 378 -377 -358 0
w 379 378 359 1
w 379 378 -359 1
w 379 -378 359 1
w 379 -378 -359 0
w 380 379 360 0
w 380 379 -360 0
w 380 -379 360 1
w 380 -379 -360 0
w 381 361 0
w 381 -361 1
w 382 381 362 0
w 382 381 -362 1
w 382 -381 362 1
w 382 -381 -362 0
w 383 382 363 1
w 383 382 -363 1
w 383 -382 363 0
w 383 -382 -363 0
w 384 383 364 0.918428
w 384 383 -364 0.053288
w 384 -383 364 0.310903
w 384 -383 -364 0.338731
w 385 384 365 0
w 385 384 -365 1
w 385 -384 365 0
w 385 -384 -365 1
w 386 385 366 1
w 386 385 -366 1
w 386 -385 366 0
w 386 -385 -366 0
w 387 386 367 0
w 387 386 -367 1
w 387 -386 367 0
w 387 -386 -367 0
w 388 387 368 0
w 388 387 -368 0
w 388 -387 368 1
w 388 -387 -368 1
w 389 388 369 1
w 389 388 -369 1
w 389 -388 369 1
w 389 -388 -369 0
w 390 389 370 0
w 390 389 -370 1
w 390 -389 370 0
w 390 -389 -370 0
w 391 390 371 0.384953
w 391 390 -371 0.486099
w 391 -390 371 0.78155
w 391 -390 -371 0.47645
w 392 391 372 1
w 392 391 -372 0
w 392 -391 372 0
w 392 -391 -372 1
w 393 392 373 1
w 393 392 -373 0
w 393 -392 373 0
w 393 -392 -373 0
w 394 393 374 0
w 394 393 -374 0
w 394 -393 374 1
w 394 -393 -374 0
w 395 394 375 0.107416
w 395 394 -375 0.736447
w 395 -394 375 0.0716797
w 395 -394 -375 0.71093
w 396 395 376 1
w 396 395 -376 1
w 396 -395 376 0
w 396 -395 -376 1
w 397 396 377 0
w 397 396 -377 1
w 397 -396 377 0
w 397 -396 -377 1
w 398 397 378 0.0422867
w 398 397 -378 0.393584
w 398 -397 378 0.59824
w 398 -397 -378 0.84416
w 399 398 379 1
w 399 398 -379 1
w 399 -398 379 0
w 399 -398 -379 1
w 400 399 380 0.896969
w 400 399 -380 0.651265
w 400 -399 380 0.273426
w 400 -399 -380 0.768624